# 石墨烯拉伸模拟示例
units metal
atom_style atomic

# 创建石墨烯晶格
lattice custom 2.46 a1 2.46 0.0 0.0 a2 1.23 2.132 0.0 a3 0.0 0.0 3.35 &
      basis 0.0 0.0 0.0 basis 0.5 0.288675 0.0

# 定义模拟区域
region box block 0 50 0 25 0 3.35 units box
create_box 1 box
create_atoms 1 region box

# 设置原子质量 (碳)
mass 1 12.01

# 设置AIREBO势函数 (包含C-C相互作用)
pair_style airebo 3.0 1 1
pair_coeff * * CH.airebo C

# 邻居列表设置
neighbor 2.0 bin
neigh_modify delay 5 every 1

# 设置边界条件
boundary s s p

# 能量最小化
minimize 1.0e-6 1.0e-8 1000 10000

# 初始化速度 (300K)
velocity all create 300 12345 mom yes rot yes

# NPT系综平衡
fix 1 all npt temp 300 300 0.1 iso 0.0 0.0 1.0

# 输出设置
themo 100
thermo_style custom step temp epair etotal press vol

# 平衡模拟
run 10000

# 切换到NVT系综进行拉伸测试
unfix 1
fix 2 all nvt temp 300 300 0.1

# 设置拉伸变形
fix 3 all deform 1 x erate 1e-5 units box

# 计算应力张量
compute stress all stress/atom NULL
compute str all reduce sum c_stress[1] c_stress[2] c_stress[3]

# 输出应力-应变数据
fix stress all ave/time 10 100 1000 c_str[1] file stress_strain.txt

# 设置轨迹输出
dump 1 all atom 1000 graphene_deform.lammpstrj
dump_modify 1 sort id

# 运行拉伸模拟
run 50000

# 最终输出
write_data final_graphene.data