# LJ流体模拟示例
units lj
atom_style atomic

# 创建晶格
lattice fcc 0.8442
region box block 0 10 0 10 0 10
create_box 1 box
create_atoms 1 box

# 设置原子属性
mass 1 1.0
velocity all create 1.44 87287 loop geom

# 设置相互作用势
pair_style lj/cut 2.5
pair_coeff 1 1 1.0 1.0 2.5

# 设置邻居列表
neighbor 0.3 bin
neigh_modify delay 5 every 1

# 设置系综
fix 1 all nve

# 输出设置
thermo 100
thermo_style custom step temp epair etotal press

# 运行模拟
run 1000

# 输出最终结构
dump 1 all atom 1000 final.lammpstrj